memory 10 Gb
molecule be2 {
0 1
Be  0.0  0.0  0.0
Be  0.0  0.0  4.5
units angstrom
}

basis {
assign custombasis
[custombasis]
cartesian
Be     0
S   6   1.00
      0.1264585690e+04       0.1944757590e-02
      0.1899368060e+03       0.1483505200e-01
      0.4315908900e+02       0.7209054629e-01
      0.1209866270e+02       0.2371541500e+00
      0.3806323220e+01       0.4691986519e+00
      0.1272890300e+01       0.3565202279e+00
S    3   1.00
      0.3196463098e+01      -0.1126487285e+00       0.5598019980e-01
      0.7478133038e+00      -0.2295064079e+00       0.2615506110e+00
      0.2199663302e+00       0.1186916764e+01       0.7939723389e+00
S    1   1.00
      0.8230990070e-01       0.1000000000e+01       0.1000000000e+01
****
}

set freeze_core False
set PRINT_BASIS True
set PUREAM False
set E_CONVERGENCE 1e-14
energy('fci')

